units 			 lj 
atom_style 		 full 
pair_style 		 lj/cut/coul/long 2.5 5.5 
pair_modify 		 shift yes mix arithmetic 
bond_style 		 fene 
angle_style 		 cosine/delta 
boundary 		 p p f 
neighbor 		 0.5 bin 
neigh_modify 		 every 1 delay 3 check yes one 10000 
kspace_style 		 pppm   0.005 
kspace_modify 		 slab   3.0 
special_bonds 		 fene 

